%BLOCK LATTICE_abc  
4.0 4.0 4.0
90 90 90
%ENDBLOCK LATTICE_abc  

%BLOCK POSITIONS_frac
Al          0       0       0  
Al          0.5       0.5       0  
Al          0.5       0       0.5 
Al          0         0.5     0.5 
%ENDBLOCK POSITIONS_frac

#symmetry_generate

kpoint_mp_grid 4 4 4
