
%BLOCK lattice_abc
2.465719 2.465719 20.00
  90.0 90.0 120.0
%ENDBLOCK lattice_abc

%BLOCK POSITIONS_FRAC
C   0.000000000000000   0.000000000000000   0.000000000000000 
C   0.333333333333333   0.666666666666667   0.000000000000000
%ENDBLOCK POSITIONS_FRAC

#%BLOCK SPECIES_POT
#C  
#%ENDBLOCK SPECIES_POT

symmetry_generate

#%BLOCK CELL_CONSTRAINTS
#       1       1       0
#       0       0       0
#%ENDBLOCK CELL_CONSTRAINTS

#BS_KPOINT_PATH_SPACING 0.2

%BLOCK BS_KPOINT_PATH
0.000000000 0.0000000000 0.00000 ! G
0.500000000 0.0000000000 0.00000 ! M
0.333333333 0.3333333333 0.00000 ! K
0.000000000 0.0000000000 0.00000 ! G
%ENDBLOCK BS_KPOINT_PATH 

#%BLOCK BS_KPOINT_LIST
#0.000000000 0.0000000000 0.00000 ! G
#0.100000000 0.0000000000 0.00000 ! M
#0.200000000 0.0000000000 0.00000 ! M
#0.333333333 0.3333333333 0.00000 ! K
#0.000000000 0.0000000000 0.00000 ! G
#%ENDBLOCK BS_KPOINT_LIST

